solution status: optimal solution found
objective value:                                   41
one.thingy.devices[3].thingy.v1_z                   -3 	(obj:0)
one.thingy.devices[3].thingy.v2_y                    1 	(obj:0)
one.thingy.devices[3].thingy.v2_z                   -3 	(obj:0)
one.thingy.devices[2].thingy.v1_y                    1 	(obj:0)
one.thingy.devices[0].thingy.v1_y                    2 	(obj:0)
one.thingy.devices[0].thingy.v1_z                    3 	(obj:0)
one.thingy.devices[1].thingy.v2_y                    2 	(obj:0)
one.thingy.devices[1].thingy.v2_z                    1 	(obj:0)
one.thingy.devices[0].thingy.v3_y                    2 	(obj:0)
one.thingy.devices[0].thingy.v3_z                   -1 	(obj:0)
one.thingy.devices[0].thingy.v2_y                    3 	(obj:0)
one.thingy.devices[0].thingy.v2_z                    1 	(obj:0)
one.thingy.devices[1].thingy.v3_y                    2 	(obj:0)
one.thingy.devices[1].thingy.v1_y                    2 	(obj:0)
one.thingy.devices[1].thingy.v1_z                    2 	(obj:0)
one.thingy.devices[3].thingy.v3_z                   -2 	(obj:0)
one.thingy.devices[2].thingy.v2_z                    1 	(obj:0)
x29                                                 2 	(obj:1)
x35                                                 2 	(obj:1)
x36                                                 2 	(obj:1)
x37                                                 1 	(obj:1)
x41                                                 1 	(obj:1)
x42                                                 2 	(obj:1)
x45                                                 1 	(obj:1)
x46                                                 2 	(obj:1)
x47                                                 1 	(obj:1)
x53                                                 2 	(obj:1)
x56                                                 1 	(obj:1)
x59                                                 2 	(obj:1)
x60                                                 1 	(obj:1)
x65                                                 2 	(obj:1)
x66                                                 2 	(obj:1)
x67                                                 1 	(obj:1)
x70                                                 1 	(obj:1)
x71                                                 1 	(obj:1)
x77                                                 2 	(obj:1)
x78                                                 2 	(obj:1)
x83                                                 2 	(obj:1)
x88                                                 1 	(obj:1)
x89                                                 2 	(obj:1)
x90                                                 1 	(obj:1)
x94                                                 2 	(obj:1)
x95                                                 2 	(obj:1)
